N = 9;
H = 6;
T = 2;

avail = array3d(1..N, 1..H, 1..T, [7, 1, 9, 5, 9, 9, 5, 2, 9, 1, 7, 7, 9, 5, 5, 0, 9, 9, 10, 10, 8, 8, 4, 5, 4, 2, 3, 4, 8, 2, 2, 7, 8, 3, 0, 10, 7, 10, 1, 2, 10, 1, 4, 4, 2, 4, 2, 7, 4, 4, 10, 5, 3, 8, 7, 6, 10, 7, 0, 9, 4, 1, 8, 5, 2, 8, 0, 9, 4, 1, 5, 6, 4, 9, 3, 9, 10, 6, 3, 3, 10, 2, 9, 6, 0, 6, 5, 0, 0, 9, 8, 6, 8, 8, 0, 6, 10, 8, 5, 6, 2, 9, 8, 2, 9, 9, 6, 2]);

r = array2d(1..H, 1..T, [4, 1, 2, 1, 2, 2, 2, 1, 5, 0, 3, 4]);
